60240.47
117 116 98 99 87 85 86 83 84 100 101 82 81 80 79 106 105 103 102 104 115 113 107 78 77 70 71 72 73 74 75 76 112 111 110 109 108 114 25 26 41 43 42 44 45 46 47 48 49 50 51 40 39 27 24 23 22 28 38 52 53 54 55 56 57 58 59 60 61 37 36 35 34 33 32 31 30 29 17 16 15 14 13 12 11 10 9 8 7 6 5 1 0 2 20 21 19 18 4 3 123 94 95 91 92 93 67 66 65 64 63 62 69 68 88 89 90 96 97 120 122 121 119 118